Minimize
	value: tt

Subject to
tt + 1000 s_1_1 > 0.0
tt - t_1_1 - 1000.441742 s_1_1  + 0.441742 s_1_7  > -992.599000
tt + 1000 s_2_1 > 0.0
tt - t_2_1 - 1000.466326 s_2_1  + 0.466326 s_2_7  > -992.519903
tt + 1000 s_1_2 > 0.0
tt - t_1_2 - 1000.441742 s_1_2  + 0.441742 s_1_8  > -992.211000
tt + 1000 s_2_2 > 0.0
tt - t_2_2 - 1000.466326 s_2_2  + 0.466326 s_2_8  > -992.682005
tt + 1000 s_1_3 > 0.0
tt - t_1_3 - 1000.441742 s_1_3  + 0.441742 s_1_8  > -986.495944
tt + 1000 s_2_3 > 0.0
tt - t_2_3 - 1000.466326 s_2_3  + 0.466326 s_2_8  > -988.148039
tt + 1000 s_1_4 > 0.0
tt - t_1_4 - 1000.883483 s_1_4  + 0.441742 s_1_3  + 0.441742 s_1_8  > -993.218800
tt + 1000 s_2_4 > 0.0
tt - t_2_4 - 1000.932651 s_2_4  + 0.466326 s_2_3  + 0.466326 s_2_8  > -993.027914
tt + 1000 s_1_5 > 0.0
tt - t_1_5 - 1000.883483 s_1_5  + 0.441742 s_1_7  + 0.441742 s_1_8  > -993.464211
tt + 1000 s_2_5 > 0.0
tt - t_2_5 - 1000.932651 s_2_5  + 0.466326 s_2_7  + 0.466326 s_2_8  > -993.717278
tt + 1000 s_1_6 > 0.0
tt - t_1_6 - 1002.208708 s_1_6  + 0.441742 s_1_5  + 0.441742 s_1_3  + 0.441742 s_1_1  + 0.441742 s_1_2  + 0.441742 s_1_4  > -999.616900
tt + 1000 s_2_6 > 0.0
tt - t_2_6 - 1002.331628 s_2_6  + 0.466326 s_2_5  + 0.466326 s_2_3  + 0.466326 s_2_1  + 0.466326 s_2_2  + 0.466326 s_2_4  > -994.818000
tt + 1000 s_1_7 > 0.0
tt - t_1_7 - 1000.000000 s_1_7  > -980.208100
tt + 1000 s_2_7 > 0.0
tt - t_2_7 - 1000.000000 s_2_7  > -984.143578
tt + 1000 s_1_8 > 0.0
tt - t_1_8 - 1000.000000 s_1_8  > -980.176500
tt + 1000 s_2_8 > 0.0
tt - t_2_8 - 1000.000000 s_2_8  > -983.695244
s_1_1 + s_2_1 = 1
s_1_2 + s_2_2 = 1
s_1_3 + s_2_3 = 1
s_1_4 + s_2_4 = 1
s_1_5 + s_2_5 = 1
s_1_6 + s_2_6 = 1
s_1_7 + s_2_7 = 1
s_1_8 + s_2_8 = 1
s_1_1 + s_1_2 + 1000 r_1_1_2 >= 2
- s_1_1 - s_1_2 - 1000 r_1_1_2 >= -1001
t_1_1 - t_1_2 - 1000.000000 u_1_1_2 - 0.441742 s_1_2  + 0.441742 s_1_8  + 2000.000000 r_1_1_2 > -992.211000
s_2_1 + s_2_2 + 1000 r_2_1_2 >= 2
- s_2_1 - s_2_2 - 1000 r_2_1_2 >= -1001
t_2_1 - t_2_2 - 1000.000000 u_2_1_2 - 0.466326 s_2_2  + 0.466326 s_2_8  + 2000.000000 r_2_1_2 > -992.682005
s_1_1 + s_1_3 + 1000 r_1_1_3 >= 2
- s_1_1 - s_1_3 - 1000 r_1_1_3 >= -1001
t_1_1 - t_1_3 - 1000.000000 u_1_1_3 - 0.441742 s_1_3  + 0.441742 s_1_8  + 2000.000000 r_1_1_3 > -986.495944
s_2_1 + s_2_3 + 1000 r_2_1_3 >= 2
- s_2_1 - s_2_3 - 1000 r_2_1_3 >= -1001
t_2_1 - t_2_3 - 1000.000000 u_2_1_3 - 0.466326 s_2_3  + 0.466326 s_2_8  + 2000.000000 r_2_1_3 > -988.148039
s_1_1 + s_1_4 + 1000 r_1_1_4 >= 2
- s_1_1 - s_1_4 - 1000 r_1_1_4 >= -1001
t_1_1 - t_1_4 - 1000.000000 u_1_1_4 - 0.883483 s_1_4  + 0.441742 s_1_3  + 0.441742 s_1_8  + 2000.000000 r_1_1_4 > -993.218800
s_2_1 + s_2_4 + 1000 r_2_1_4 >= 2
- s_2_1 - s_2_4 - 1000 r_2_1_4 >= -1001
t_2_1 - t_2_4 - 1000.000000 u_2_1_4 - 0.932651 s_2_4  + 0.466326 s_2_3  + 0.466326 s_2_8  + 2000.000000 r_2_1_4 > -993.027914
s_1_1 + s_1_5 + 1000 r_1_1_5 >= 2
- s_1_1 - s_1_5 - 1000 r_1_1_5 >= -1001
t_1_1 - t_1_5 - 1000.000000 u_1_1_5 - 0.883483 s_1_5  + 0.441742 s_1_7  + 0.441742 s_1_8  + 2000.000000 r_1_1_5 > -993.464211
s_2_1 + s_2_5 + 1000 r_2_1_5 >= 2
- s_2_1 - s_2_5 - 1000 r_2_1_5 >= -1001
t_2_1 - t_2_5 - 1000.000000 u_2_1_5 - 0.932651 s_2_5  + 0.466326 s_2_7  + 0.466326 s_2_8  + 2000.000000 r_2_1_5 > -993.717278
t_1_6 - t_1_1 - 1000.441742 s_1_1  + 0.441742 s_1_7  > -992.599000
t_1_6 - t_2_1 - 1000.466326 s_2_1  + 0.466326 s_2_7  > -992.519903
t_2_6 - t_1_1 - 1000.441742 s_1_1  + 0.441742 s_1_7  > -992.599000
t_2_6 - t_2_1 - 1000.466326 s_2_1  + 0.466326 s_2_7  > -992.519903
t_1_1 - t_1_7 - 1000.000000 s_1_7  > -980.208100
t_1_1 - t_2_7 - 1000.000000 s_2_7  > -984.143578
t_2_1 - t_1_7 - 1000.000000 s_1_7  > -980.208100
t_2_1 - t_2_7 - 1000.000000 s_2_7  > -984.143578
s_1_1 + s_1_8 + 1000 r_1_1_8 >= 2
- s_1_1 - s_1_8 - 1000 r_1_1_8 >= -1001
t_1_1 - t_1_8 - 1000.000000 u_1_1_8 - 0.000000 s_1_8  + 2000.000000 r_1_1_8 > -980.176500
s_2_1 + s_2_8 + 1000 r_2_1_8 >= 2
- s_2_1 - s_2_8 - 1000 r_2_1_8 >= -1001
t_2_1 - t_2_8 - 1000.000000 u_2_1_8 - 0.000000 s_2_8  + 2000.000000 r_2_1_8 > -983.695244
s_1_2 + s_1_1 + 1000 r_1_1_2 >= 2
- s_1_2 - s_1_1 - 1000 r_1_1_2 >= -1001
t_1_2 - t_1_1 + 1000.000000 u_1_1_2 - 0.441742 s_1_1  + 0.441742 s_1_7  + 2000.000000 r_1_1_2 > 7.401000
s_2_2 + s_2_1 + 1000 r_2_1_2 >= 2
- s_2_2 - s_2_1 - 1000 r_2_1_2 >= -1001
t_2_2 - t_2_1 + 1000.000000 u_2_1_2 - 0.466326 s_2_1  + 0.466326 s_2_7  + 2000.000000 r_2_1_2 > 7.480097
s_1_2 + s_1_3 + 1000 r_1_2_3 >= 2
- s_1_2 - s_1_3 - 1000 r_1_2_3 >= -1001
t_1_2 - t_1_3 - 1000.000000 u_1_2_3 - 0.441742 s_1_3  + 0.441742 s_1_8  + 2000.000000 r_1_2_3 > -986.495944
s_2_2 + s_2_3 + 1000 r_2_2_3 >= 2
- s_2_2 - s_2_3 - 1000 r_2_2_3 >= -1001
t_2_2 - t_2_3 - 1000.000000 u_2_2_3 - 0.466326 s_2_3  + 0.466326 s_2_8  + 2000.000000 r_2_2_3 > -988.148039
s_1_2 + s_1_4 + 1000 r_1_2_4 >= 2
- s_1_2 - s_1_4 - 1000 r_1_2_4 >= -1001
t_1_2 - t_1_4 - 1000.000000 u_1_2_4 - 0.883483 s_1_4  + 0.441742 s_1_3  + 0.441742 s_1_8  + 2000.000000 r_1_2_4 > -993.218800
s_2_2 + s_2_4 + 1000 r_2_2_4 >= 2
- s_2_2 - s_2_4 - 1000 r_2_2_4 >= -1001
t_2_2 - t_2_4 - 1000.000000 u_2_2_4 - 0.932651 s_2_4  + 0.466326 s_2_3  + 0.466326 s_2_8  + 2000.000000 r_2_2_4 > -993.027914
s_1_2 + s_1_5 + 1000 r_1_2_5 >= 2
- s_1_2 - s_1_5 - 1000 r_1_2_5 >= -1001
t_1_2 - t_1_5 - 1000.000000 u_1_2_5 - 0.883483 s_1_5  + 0.441742 s_1_7  + 0.441742 s_1_8  + 2000.000000 r_1_2_5 > -993.464211
s_2_2 + s_2_5 + 1000 r_2_2_5 >= 2
- s_2_2 - s_2_5 - 1000 r_2_2_5 >= -1001
t_2_2 - t_2_5 - 1000.000000 u_2_2_5 - 0.932651 s_2_5  + 0.466326 s_2_7  + 0.466326 s_2_8  + 2000.000000 r_2_2_5 > -993.717278
t_1_6 - t_1_2 - 1000.441742 s_1_2  + 0.441742 s_1_8  > -992.211000
t_1_6 - t_2_2 - 1000.466326 s_2_2  + 0.466326 s_2_8  > -992.682005
t_2_6 - t_1_2 - 1000.441742 s_1_2  + 0.441742 s_1_8  > -992.211000
t_2_6 - t_2_2 - 1000.466326 s_2_2  + 0.466326 s_2_8  > -992.682005
s_1_2 + s_1_7 + 1000 r_1_2_7 >= 2
- s_1_2 - s_1_7 - 1000 r_1_2_7 >= -1001
t_1_2 - t_1_7 - 1000.000000 u_1_2_7 - 0.000000 s_1_7  + 2000.000000 r_1_2_7 > -980.208100
s_2_2 + s_2_7 + 1000 r_2_2_7 >= 2
- s_2_2 - s_2_7 - 1000 r_2_2_7 >= -1001
t_2_2 - t_2_7 - 1000.000000 u_2_2_7 - 0.000000 s_2_7  + 2000.000000 r_2_2_7 > -984.143578
t_1_2 - t_1_8 - 1000.000000 s_1_8  > -980.176500
t_1_2 - t_2_8 - 1000.000000 s_2_8  > -983.695244
t_2_2 - t_1_8 - 1000.000000 s_1_8  > -980.176500
t_2_2 - t_2_8 - 1000.000000 s_2_8  > -983.695244
s_1_3 + s_1_1 + 1000 r_1_1_3 >= 2
- s_1_3 - s_1_1 - 1000 r_1_1_3 >= -1001
t_1_3 - t_1_1 + 1000.000000 u_1_1_3 - 0.441742 s_1_1  + 0.441742 s_1_7  + 2000.000000 r_1_1_3 > 7.401000
s_2_3 + s_2_1 + 1000 r_2_1_3 >= 2
- s_2_3 - s_2_1 - 1000 r_2_1_3 >= -1001
t_2_3 - t_2_1 + 1000.000000 u_2_1_3 - 0.466326 s_2_1  + 0.466326 s_2_7  + 2000.000000 r_2_1_3 > 7.480097
s_1_3 + s_1_2 + 1000 r_1_2_3 >= 2
- s_1_3 - s_1_2 - 1000 r_1_2_3 >= -1001
t_1_3 - t_1_2 + 1000.000000 u_1_2_3 - 0.441742 s_1_2  + 0.441742 s_1_8  + 2000.000000 r_1_2_3 > 7.789000
s_2_3 + s_2_2 + 1000 r_2_2_3 >= 2
- s_2_3 - s_2_2 - 1000 r_2_2_3 >= -1001
t_2_3 - t_2_2 + 1000.000000 u_2_2_3 - 0.466326 s_2_2  + 0.466326 s_2_8  + 2000.000000 r_2_2_3 > 7.317995
t_1_4 - t_1_3 - 1000.441742 s_1_3  + 0.441742 s_1_8  > -986.495944
t_1_4 - t_2_3 - 1000.466326 s_2_3  + 0.466326 s_2_8  > -988.148039
t_2_4 - t_1_3 - 1000.441742 s_1_3  + 0.441742 s_1_8  > -986.495944
t_2_4 - t_2_3 - 1000.466326 s_2_3  + 0.466326 s_2_8  > -988.148039
s_1_3 + s_1_5 + 1000 r_1_3_5 >= 2
- s_1_3 - s_1_5 - 1000 r_1_3_5 >= -1001
t_1_3 - t_1_5 - 1000.000000 u_1_3_5 - 0.883483 s_1_5  + 0.441742 s_1_7  + 0.441742 s_1_8  + 2000.000000 r_1_3_5 > -993.464211
s_2_3 + s_2_5 + 1000 r_2_3_5 >= 2
- s_2_3 - s_2_5 - 1000 r_2_3_5 >= -1001
t_2_3 - t_2_5 - 1000.000000 u_2_3_5 - 0.932651 s_2_5  + 0.466326 s_2_7  + 0.466326 s_2_8  + 2000.000000 r_2_3_5 > -993.717278
t_1_6 - t_1_3 - 1000.441742 s_1_3  + 0.441742 s_1_8  > -986.495944
t_1_6 - t_2_3 - 1000.466326 s_2_3  + 0.466326 s_2_8  > -988.148039
t_2_6 - t_1_3 - 1000.441742 s_1_3  + 0.441742 s_1_8  > -986.495944
t_2_6 - t_2_3 - 1000.466326 s_2_3  + 0.466326 s_2_8  > -988.148039
s_1_3 + s_1_7 + 1000 r_1_3_7 >= 2
- s_1_3 - s_1_7 - 1000 r_1_3_7 >= -1001
t_1_3 - t_1_7 - 1000.000000 u_1_3_7 - 0.000000 s_1_7  + 2000.000000 r_1_3_7 > -980.208100
s_2_3 + s_2_7 + 1000 r_2_3_7 >= 2
- s_2_3 - s_2_7 - 1000 r_2_3_7 >= -1001
t_2_3 - t_2_7 - 1000.000000 u_2_3_7 - 0.000000 s_2_7  + 2000.000000 r_2_3_7 > -984.143578
t_1_3 - t_1_8 - 1000.000000 s_1_8  > -980.176500
t_1_3 - t_2_8 - 1000.000000 s_2_8  > -983.695244
t_2_3 - t_1_8 - 1000.000000 s_1_8  > -980.176500
t_2_3 - t_2_8 - 1000.000000 s_2_8  > -983.695244
s_1_4 + s_1_1 + 1000 r_1_1_4 >= 2
- s_1_4 - s_1_1 - 1000 r_1_1_4 >= -1001
t_1_4 - t_1_1 + 1000.000000 u_1_1_4 - 0.441742 s_1_1  + 0.441742 s_1_7  + 2000.000000 r_1_1_4 > 7.401000
s_2_4 + s_2_1 + 1000 r_2_1_4 >= 2
- s_2_4 - s_2_1 - 1000 r_2_1_4 >= -1001
t_2_4 - t_2_1 + 1000.000000 u_2_1_4 - 0.466326 s_2_1  + 0.466326 s_2_7  + 2000.000000 r_2_1_4 > 7.480097
s_1_4 + s_1_2 + 1000 r_1_2_4 >= 2
- s_1_4 - s_1_2 - 1000 r_1_2_4 >= -1001
t_1_4 - t_1_2 + 1000.000000 u_1_2_4 - 0.441742 s_1_2  + 0.441742 s_1_8  + 2000.000000 r_1_2_4 > 7.789000
s_2_4 + s_2_2 + 1000 r_2_2_4 >= 2
- s_2_4 - s_2_2 - 1000 r_2_2_4 >= -1001
t_2_4 - t_2_2 + 1000.000000 u_2_2_4 - 0.466326 s_2_2  + 0.466326 s_2_8  + 2000.000000 r_2_2_4 > 7.317995
s_1_4 + s_1_5 + 1000 r_1_4_5 >= 2
- s_1_4 - s_1_5 - 1000 r_1_4_5 >= -1001
t_1_4 - t_1_5 - 1000.000000 u_1_4_5 - 0.883483 s_1_5  + 0.441742 s_1_7  + 0.441742 s_1_8  + 2000.000000 r_1_4_5 > -993.464211
s_2_4 + s_2_5 + 1000 r_2_4_5 >= 2
- s_2_4 - s_2_5 - 1000 r_2_4_5 >= -1001
t_2_4 - t_2_5 - 1000.000000 u_2_4_5 - 0.932651 s_2_5  + 0.466326 s_2_7  + 0.466326 s_2_8  + 2000.000000 r_2_4_5 > -993.717278
t_1_6 - t_1_4 - 1000.883483 s_1_4  + 0.441742 s_1_3  + 0.441742 s_1_8  > -993.218800
t_1_6 - t_2_4 - 1000.932651 s_2_4  + 0.466326 s_2_3  + 0.466326 s_2_8  > -993.027914
t_2_6 - t_1_4 - 1000.883483 s_1_4  + 0.441742 s_1_3  + 0.441742 s_1_8  > -993.218800
t_2_6 - t_2_4 - 1000.932651 s_2_4  + 0.466326 s_2_3  + 0.466326 s_2_8  > -993.027914
s_1_4 + s_1_7 + 1000 r_1_4_7 >= 2
- s_1_4 - s_1_7 - 1000 r_1_4_7 >= -1001
t_1_4 - t_1_7 - 1000.000000 u_1_4_7 - 0.000000 s_1_7  + 2000.000000 r_1_4_7 > -980.208100
s_2_4 + s_2_7 + 1000 r_2_4_7 >= 2
- s_2_4 - s_2_7 - 1000 r_2_4_7 >= -1001
t_2_4 - t_2_7 - 1000.000000 u_2_4_7 - 0.000000 s_2_7  + 2000.000000 r_2_4_7 > -984.143578
t_1_4 - t_1_8 - 1000.000000 s_1_8  > -980.176500
t_1_4 - t_2_8 - 1000.000000 s_2_8  > -983.695244
t_2_4 - t_1_8 - 1000.000000 s_1_8  > -980.176500
t_2_4 - t_2_8 - 1000.000000 s_2_8  > -983.695244
s_1_5 + s_1_1 + 1000 r_1_1_5 >= 2
- s_1_5 - s_1_1 - 1000 r_1_1_5 >= -1001
t_1_5 - t_1_1 + 1000.000000 u_1_1_5 - 0.441742 s_1_1  + 0.441742 s_1_7  + 2000.000000 r_1_1_5 > 7.401000
s_2_5 + s_2_1 + 1000 r_2_1_5 >= 2
- s_2_5 - s_2_1 - 1000 r_2_1_5 >= -1001
t_2_5 - t_2_1 + 1000.000000 u_2_1_5 - 0.466326 s_2_1  + 0.466326 s_2_7  + 2000.000000 r_2_1_5 > 7.480097
s_1_5 + s_1_2 + 1000 r_1_2_5 >= 2
- s_1_5 - s_1_2 - 1000 r_1_2_5 >= -1001
t_1_5 - t_1_2 + 1000.000000 u_1_2_5 - 0.441742 s_1_2  + 0.441742 s_1_8  + 2000.000000 r_1_2_5 > 7.789000
s_2_5 + s_2_2 + 1000 r_2_2_5 >= 2
- s_2_5 - s_2_2 - 1000 r_2_2_5 >= -1001
t_2_5 - t_2_2 + 1000.000000 u_2_2_5 - 0.466326 s_2_2  + 0.466326 s_2_8  + 2000.000000 r_2_2_5 > 7.317995
s_1_5 + s_1_3 + 1000 r_1_3_5 >= 2
- s_1_5 - s_1_3 - 1000 r_1_3_5 >= -1001
t_1_5 - t_1_3 + 1000.000000 u_1_3_5 - 0.441742 s_1_3  + 0.441742 s_1_8  + 2000.000000 r_1_3_5 > 13.504056
s_2_5 + s_2_3 + 1000 r_2_3_5 >= 2
- s_2_5 - s_2_3 - 1000 r_2_3_5 >= -1001
t_2_5 - t_2_3 + 1000.000000 u_2_3_5 - 0.466326 s_2_3  + 0.466326 s_2_8  + 2000.000000 r_2_3_5 > 11.851961
s_1_5 + s_1_4 + 1000 r_1_4_5 >= 2
- s_1_5 - s_1_4 - 1000 r_1_4_5 >= -1001
t_1_5 - t_1_4 + 1000.000000 u_1_4_5 - 0.883483 s_1_4  + 0.441742 s_1_3  + 0.441742 s_1_8  + 2000.000000 r_1_4_5 > 6.781200
s_2_5 + s_2_4 + 1000 r_2_4_5 >= 2
- s_2_5 - s_2_4 - 1000 r_2_4_5 >= -1001
t_2_5 - t_2_4 + 1000.000000 u_2_4_5 - 0.932651 s_2_4  + 0.466326 s_2_3  + 0.466326 s_2_8  + 2000.000000 r_2_4_5 > 6.972086
t_1_6 - t_1_5 - 1000.883483 s_1_5  + 0.441742 s_1_7  + 0.441742 s_1_8  > -993.464211
t_1_6 - t_2_5 - 1000.932651 s_2_5  + 0.466326 s_2_7  + 0.466326 s_2_8  > -993.717278
t_2_6 - t_1_5 - 1000.883483 s_1_5  + 0.441742 s_1_7  + 0.441742 s_1_8  > -993.464211
t_2_6 - t_2_5 - 1000.932651 s_2_5  + 0.466326 s_2_7  + 0.466326 s_2_8  > -993.717278
t_1_5 - t_1_7 - 1000.000000 s_1_7  > -980.208100
t_1_5 - t_2_7 - 1000.000000 s_2_7  > -984.143578
t_2_5 - t_1_7 - 1000.000000 s_1_7  > -980.208100
t_2_5 - t_2_7 - 1000.000000 s_2_7  > -984.143578
t_1_5 - t_1_8 - 1000.000000 s_1_8  > -980.176500
t_1_5 - t_2_8 - 1000.000000 s_2_8  > -983.695244
t_2_5 - t_1_8 - 1000.000000 s_1_8  > -980.176500
t_2_5 - t_2_8 - 1000.000000 s_2_8  > -983.695244
s_1_7 + s_1_2 + 1000 r_1_2_7 >= 2
- s_1_7 - s_1_2 - 1000 r_1_2_7 >= -1001
t_1_7 - t_1_2 + 1000.000000 u_1_2_7 - 0.441742 s_1_2  + 0.441742 s_1_8  + 2000.000000 r_1_2_7 > 7.789000
s_2_7 + s_2_2 + 1000 r_2_2_7 >= 2
- s_2_7 - s_2_2 - 1000 r_2_2_7 >= -1001
t_2_7 - t_2_2 + 1000.000000 u_2_2_7 - 0.466326 s_2_2  + 0.466326 s_2_8  + 2000.000000 r_2_2_7 > 7.317995
s_1_7 + s_1_3 + 1000 r_1_3_7 >= 2
- s_1_7 - s_1_3 - 1000 r_1_3_7 >= -1001
t_1_7 - t_1_3 + 1000.000000 u_1_3_7 - 0.441742 s_1_3  + 0.441742 s_1_8  + 2000.000000 r_1_3_7 > 13.504056
s_2_7 + s_2_3 + 1000 r_2_3_7 >= 2
- s_2_7 - s_2_3 - 1000 r_2_3_7 >= -1001
t_2_7 - t_2_3 + 1000.000000 u_2_3_7 - 0.466326 s_2_3  + 0.466326 s_2_8  + 2000.000000 r_2_3_7 > 11.851961
s_1_7 + s_1_4 + 1000 r_1_4_7 >= 2
- s_1_7 - s_1_4 - 1000 r_1_4_7 >= -1001
t_1_7 - t_1_4 + 1000.000000 u_1_4_7 - 0.883483 s_1_4  + 0.441742 s_1_3  + 0.441742 s_1_8  + 2000.000000 r_1_4_7 > 6.781200
s_2_7 + s_2_4 + 1000 r_2_4_7 >= 2
- s_2_7 - s_2_4 - 1000 r_2_4_7 >= -1001
t_2_7 - t_2_4 + 1000.000000 u_2_4_7 - 0.932651 s_2_4  + 0.466326 s_2_3  + 0.466326 s_2_8  + 2000.000000 r_2_4_7 > 6.972086
s_1_7 + s_1_8 + 1000 r_1_7_8 >= 2
- s_1_7 - s_1_8 - 1000 r_1_7_8 >= -1001
t_1_7 - t_1_8 - 1000.000000 u_1_7_8 - 0.000000 s_1_8  + 2000.000000 r_1_7_8 > -980.176500
s_2_7 + s_2_8 + 1000 r_2_7_8 >= 2
- s_2_7 - s_2_8 - 1000 r_2_7_8 >= -1001
t_2_7 - t_2_8 - 1000.000000 u_2_7_8 - 0.000000 s_2_8  + 2000.000000 r_2_7_8 > -983.695244
s_1_8 + s_1_1 + 1000 r_1_1_8 >= 2
- s_1_8 - s_1_1 - 1000 r_1_1_8 >= -1001
t_1_8 - t_1_1 + 1000.000000 u_1_1_8 - 0.441742 s_1_1  + 0.441742 s_1_7  + 2000.000000 r_1_1_8 > 7.401000
s_2_8 + s_2_1 + 1000 r_2_1_8 >= 2
- s_2_8 - s_2_1 - 1000 r_2_1_8 >= -1001
t_2_8 - t_2_1 + 1000.000000 u_2_1_8 - 0.466326 s_2_1  + 0.466326 s_2_7  + 2000.000000 r_2_1_8 > 7.480097
s_1_8 + s_1_7 + 1000 r_1_7_8 >= 2
- s_1_8 - s_1_7 - 1000 r_1_7_8 >= -1001
t_1_8 - t_1_7 + 1000.000000 u_1_7_8 - 0.000000 s_1_7  + 2000.000000 r_1_7_8 > 19.791900
s_2_8 + s_2_7 + 1000 r_2_7_8 >= 2
- s_2_8 - s_2_7 - 1000 r_2_7_8 >= -1001
t_2_8 - t_2_7 + 1000.000000 u_2_7_8 - 0.000000 s_2_7  + 2000.000000 r_2_7_8 > 15.856422
Binary
s_1_1
s_2_1
s_1_2
s_2_2
s_1_3
s_2_3
s_1_4
s_2_4
s_1_5
s_2_5
s_1_6
s_2_6
s_1_7
s_2_7
s_1_8
s_2_8
u_1_1_2
r_1_1_2
u_2_1_2
r_2_1_2
u_1_1_3
r_1_1_3
u_2_1_3
r_2_1_3
u_1_1_4
r_1_1_4
u_2_1_4
r_2_1_4
u_1_1_5
r_1_1_5
u_2_1_5
r_2_1_5
u_1_1_8
r_1_1_8
u_2_1_8
r_2_1_8
u_1_2_3
r_1_2_3
u_2_2_3
r_2_2_3
u_1_2_4
r_1_2_4
u_2_2_4
r_2_2_4
u_1_2_5
r_1_2_5
u_2_2_5
r_2_2_5
u_1_2_7
r_1_2_7
u_2_2_7
r_2_2_7
u_1_3_5
r_1_3_5
u_2_3_5
r_2_3_5
u_1_3_7
r_1_3_7
u_2_3_7
r_2_3_7
u_1_4_5
r_1_4_5
u_2_4_5
r_2_4_5
u_1_4_7
r_1_4_7
u_2_4_7
r_2_4_7
u_1_7_8
r_1_7_8
u_2_7_8
r_2_7_8

End
